p tw 20 60
e 0 1
e 0 3
e 0 5
e 0 6
e 0 8
e 0 13
e 0 15
e 0 16
e 0 17
e 0 18
e 1 4
e 1 5
e 1 7
e 1 17
e 1 18
e 2 4
e 2 9
e 2 12
e 2 14
e 3 4
e 3 5
e 3 8
e 3 12
e 3 13
e 3 14
e 3 16
e 4 6
e 4 8
e 4 11
e 4 14
e 4 17
e 4 19
e 5 10
e 5 11
e 5 12
e 5 13
e 6 7
e 6 8
e 6 9
e 6 15
e 6 17
e 6 19
e 7 12
e 7 15
e 7 19
e 8 9
e 8 12
e 8 19
e 9 10
e 9 12
e 9 16
e 9 19
e 10 15
e 10 16
e 11 12
e 11 18
e 11 19
e 13 16
e 13 18
e 14 18
